0 210
1 201
2 204
3 198
4 202
5 206
6 200
7 201
8 205
9 206
10 211
11 227
12 220
13 222
14 196
15 190
16 195
17 198
18 202
19 202
20 200
21 197
22 196
23 194
24 195
25 195
26 195
27 195
28 199
29 204
30 191
31 190
32 194
33 189
34 191
35 193
36 193
37 194
38 194
39 195
40 200
41 196
42 197
43 199
44 195
45 195
46 196
47 195
48 190
49 191
50 192
51 192
52 192
53 197
54 193
55 197
56 196
57 195
58 194
59 195
60 180
61 181
62 182
63 181
64 185
65 184
66 192
67 201
68 202
69 200
70 203
71 203
72 202
73 205
74 209
75 206
76 208
77 208
78 209
79 207
80 208
81 211
82 211
83 208
84 207
85 207
86 207
87 207
88 208
89 207
90 208
91 208
92 212
93 212
94 213
95 213
96 214
97 214
98 217
99 215
100 218
101 219
102 220
103 219
104 220
105 224
106 220
107 224
108 220
109 220
110 224
111 220
112 220
113 227
114 220
115 226
116 222
117 222
118 223
119 223
120 225
121 225
122 225
123 225
124 225
125 226
126 228
127 227
128 234
129 207
130 208
131 207
132 207
133 207
134 211
135 212
136 208
137 208
138 208
139 209
140 209
141 208
142 206
143 197
144 196
145 196
146 198
147 198
148 198
149 199
150 199
151 201
152 210
153 210
154 204
155 205
156 205
157 206
158 206
159 205
160 209
161 206
162 206
163 206
164 212
165 206
166 207
167 206
168 203
169 201
170 198
171 193
172 192
173 192
174 192
175 193
176 192
177 196
178 192
179 192
180 192
181 192
182 195
183 194
184 193
185 193
186 194
187 194
188 193
189 193
190 193
191 193
192 193
193 194
194 193
195 193
196 193
197 193
198 200
199 195
200 196
201 200
202 205
203 200
204 201
205 205
206 201
207 201
208 201
209 209
210 212
211 213
212 203
213 204
214 210
215 211
216 205
217 211
218 221
219 204
220 203
221 203
222 203
223 204
224 207
225 205
